
Gurobi 10.0.1 (linux64) logging started Sun Nov 26 16:14:59 2023

Set parameter LogFile to value "ArtificialInstance/ExperimentV2/S3T4K3/AdSp/gurobiDoSp61.txt"
Gurobi Optimizer version 10.0.1 build v10.0.1rc0 (linux64)

CPU model: AMD EPYC 7H12 64-Core Processor, instruction set [SSE2|AVX|AVX2]
Thread count: 128 physical cores, 128 logical processors, using up to 32 threads

Academic license 656792 - for non-commercial use only - registered to b.___@student.vu.nl
Optimize a model with 17360 rows, 16344 columns and 63060 nonzeros
Model fingerprint: 0x2a3da685
Variable types: 0 continuous, 16344 integer (16344 binary)
Coefficient statistics:
  Matrix range     [1e+00, 1e+00]
  Objective range  [1e+00, 2e+01]
  Bounds range     [1e+00, 1e+00]
  RHS range        [1e+00, 1e+00]
Presolve removed 14191 rows and 13425 columns
Presolve time: 0.29s
Presolved: 3169 rows, 2919 columns, 11423 nonzeros
Variable types: 0 continuous, 2919 integer (2919 binary)

Root relaxation: objective 8.809313e+01, 810 iterations, 0.02 seconds (0.02 work units)

    Nodes    |    Current Node    |     Objective Bounds      |     Work
 Expl Unexpl |  Obj  Depth IntInf | Incumbent    BestBd   Gap | It/Node Time

*    0     0               0      88.0931285   88.09313  0.00%     -    0s

Explored 1 nodes (810 simplex iterations) in 0.37 seconds (0.23 work units)
Thread count was 32 (of 128 available processors)

Solution count 1: 88.0931 

Optimal solution found (tolerance 1.00e-04)
Best objective 8.809312851729e+01, best bound 8.809312851729e+01, gap 0.0000%
